1586358
2 45 15587
45 27 8214
27 17 1445
17 9 5356
9 58 1777
58 15 6904
15 36 14151
36 8 11459
8 68 34471
68 35 19070
35 51 8926
51 39 11004
39 62 8740
62 37 30446
37 53 6554
53 44 84806
44 14 62420
14 10 62052
10 18 28652
18 57 27906
57 33 88918
33 52 101509
52 22 46274
22 31 39447
31 28 65445
28 50 10810
50 59 29672
59 16 10880
16 63 14689
63 24 26977
24 61 5437
61 12 10412
12 32 4813
32 5 6969
5 40 3130
40 56 3489
56 42 5894
42 3 13084
3 21 17216
21 38 42598
38 67 15200
67 7 19183
7 43 52950
43 46 69394
46 34 36286
34 55 20835
55 26 61621
26 66 57991
66 11 13370
11 64 35955
64 6 32039
6 41 10602
41 30 5056
30 25 1249
25 29 9940
29 60 6419
60 23 7498
23 49 4353
49 19 8895
19 1 22804
1 54 18207
54 47 18520
47 13 9114
13 65 18316
65 20 13332
20 4 4440
4 48 7248
48 2 7938
